TOUR_SECTION
46
99
98
184
2
80
108
75
148
140
82
165
55
30
62
22
32
91
106
44
121
169
76
84
21
104
60
197
200
115
83
109
61
199
116
182
56
152
59
36
26
69
189
136
133
64
63
23
194
50
190
52
134
131
1
193
168
139
33
29
114
79
81
191
94
141
150
178
144
127
175
87
160
97
77
88
195
192
123
103
188
163
145
28
122
7
35
185
43
31
166
39
95
162
138
176
155
11
20
125
151
117
156
107
177
45
102
167
54
72
146
147
196
111
67
159
24
3
89
93
19
187
149
86
12
174
66
37
38
172
58
73
124
186
53
112
181
40
68
154
128
78
164
132
70
153
17
113
90
13
6
198
130
96
179
110
49
143
27
74
105
161
8
25
15
142
170
137
101
129
5
16
10
41
92
180
48
71
85
18
118
51
57
9
119
47
158
4
34
42
14
120
126
173
65
157
100
135
171
183
-1
EOF